c random cnf
p cnf 50 50
10 -30 0
-17 -29 0
20 35 0
-2 31 0
14 -27 0
-2 -14 0
-12 -36 0
-16 -40 0
-21 -42 0
-21 -45 0
14 -40 0
12 46 0
-33 40 0
-15 -49 0
10 -35 0
23 31 0
-37 -41 0
-19 -26 0
32 -34 0
-9 33 0
20 33 0
-18 38 0
-3 -42 0
28 43 0
-9 41 0
-19 23 0
11 12 0
-10 48 0
17 -20 0
-15 21 0
-13 -16 0
-7 39 0
-8 -30 0
-12 -43 0
-34 39 0
-16 42 0
-26 -34 0
32 42 0
-16 25 0
8 -26 0
17 22 0
8 14 0
-6 -11 0
4 -17 0
9 22 0
-33 35 0
29 -31 0
-3 -8 0
6 -30 0
-16 -43 0
